p cnf 159 625
83 84 0
47 51 62 70 0
45 68 77 137 0
35 36 74 82 0
73 90 92 0
91 107 112 0
96 97 100 0
30 43 102 0
66 105 0
54 108 121 0
52 58 123 0
49 130 132 0
41 44 0
37 38 0
34 75 86 0
72 99 0
31 61 103 0
29 40 42 0
28 80 0
27 32 65 106 0
57 110 0
39 67 78 0
81 88 0
64 111 0
93 113 116 0
98 101 0
117 118 0
119 120 122 0
59 85 124 125 0
71 126 128 129 0
48 131 133 134 0
63 79 135 136 0
89 139 140 0
94 141 142 0
115 143 145 146 0
-38 -127 0
-75 -127 0
-114 -127 0
-38 -75 0
-38 -114 0
-75 -114 0
-80 -103 0
-65 -103 0
-103 -109 0
-65 -80 0
-80 -109 0
-65 -109 0
-57 -138 0
-57 -88 0
-57 -93 0
-88 -138 0
-93 -138 0
-88 -93 0
-126 -139 0
-126 -147 0
-126 -143 0
-139 -147 0
-139 -143 0
-143 -147 0
-103 -127 0
-57 -127 0
-126 -127 0
-57 -103 0
-103 -126 0
-57 -126 0
-38 -80 0
-38 -138 0
-38 -139 0
-80 -138 0
-80 -139 0
-138 -139 0
-65 -75 0
-75 -88 0
-75 -147 0
-65 -88 0
-65 -147 0
-88 -147 0
-109 -114 0
-93 -114 0
-114 -143 0
-93 -109 0
-109 -143 0
-93 -143 0
-70 -84 0
-68 -84 0
-36 -84 0
-73 -84 0
-84 -112 0
-68 -70 0
-36 -70 0
-70 -73 0
-70 -112 0
-36 -68 0
-68 -73 0
-68 -112 0
-36 -73 0
-36 -112 0
-73 -112 0
-102 -104 0
-104 -148 0
-66 -104 0
-104 -149 0
-104 -108 0
-102 -148 0
-66 -102 0
-102 -149 0
-102 -108 0
-66 -148 0
-148 -149 0
-108 -148 0
-66 -149 0
-66 -108 0
-108 -149 0
-49 -60 0
-44 -60 0
-60 -86 0
-60 -150 0
-60 -95 0
-44 -49 0
-49 -86 0
-49 -150 0
-49 -95 0
-44 -86 0
-44 -150 0
-44 -95 0
-86 -150 0
-86 -95 0
-95 -150 0
-29 -31 0
-31 -151 0
-31 -32 0
-31 -153 0
-31 -55 0
-29 -151 0
-29 -32 0
-29 -153 0
-29 -55 0
-32 -151 0
-151 -153 0
-55 -151 0
-32 -153 0
-32 -55 0
-55 -153 0
-154 -155 0
-117 -154 0
-154 -156 0
-154 -157 0
-119 -154 0
-117 -155 0
-155 -156 0
-155 -157 0
-119 -155 0
-117 -156 0
-117 -157 0
-117 -119 0
-156 -157 0
-119 -156 0
-119 -157 0
-48 -128 0
-63 -128 0
-76 -128 0
-128 -141 0
-115 -128 0
-48 -63 0
-48 -76 0
-48 -141 0
-48 -115 0
-63 -76 0
-63 -141 0
-63 -115 0
-76 -141 0
-76 -115 0
-115 -141 0
-84 -104 0
-60 -84 0
-31 -84 0
-84 -154 0
-84 -128 0
-60 -104 0
-31 -104 0
-104 -154 0
-104 -128 0
-31 -60 0
-60 -154 0
-60 -128 0
-31 -154 0
-31 -128 0
-128 -154 0
-70 -102 0
-49 -70 0
-29 -70 0
-70 -155 0
-48 -70 0
-49 -102 0
-29 -102 0
-102 -155 0
-48 -102 0
-29 -49 0
-49 -155 0
-48 -49 0
-29 -155 0
-29 -48 0
-48 -155 0
-68 -148 0
-44 -68 0
-68 -151 0
-68 -117 0
-63 -68 0
-44 -148 0
-148 -151 0
-117 -148 0
-63 -148 0
-44 -151 0
-44 -117 0
-44 -63 0
-117 -151 0
-63 -151 0
-63 -117 0
-36 -66 0
-36 -86 0
-32 -36 0
-36 -156 0
-36 -76 0
-66 -86 0
-32 -66 0
-66 -156 0
-66 -76 0
-32 -86 0
-86 -156 0
-76 -86 0
-32 -156 0
-32 -76 0
-76 -156 0
-73 -149 0
-73 -150 0
-73 -153 0
-73 -157 0
-73 -141 0
-149 -150 0
-149 -153 0
-149 -157 0
-141 -149 0
-150 -153 0
-150 -157 0
-141 -150 0
-153 -157 0
-141 -153 0
-141 -157 0
-108 -112 0
-95 -112 0
-55 -112 0
-112 -119 0
-112 -115 0
-95 -108 0
-55 -108 0
-108 -119 0
-108 -115 0
-55 -95 0
-95 -119 0
-95 -115 0
-55 -119 0
-55 -115 0
-115 -119 0
-51 -159 0
-45 -159 0
-91 -159 0
-45 -51 0
-51 -91 0
-45 -91 0
-30 -96 0
-96 -152 0
-54 -96 0
-30 -152 0
-30 -54 0
-54 -152 0
-123 -130 0
-41 -123 0
-123 -144 0
-41 -130 0
-130 -144 0
-41 -144 0
-53 -69 0
-53 -67 0
-53 -113 0
-67 -69 0
-69 -113 0
-67 -113 0
-96 -159 0
-123 -159 0
-53 -159 0
-96 -123 0
-53 -96 0
-53 -123 0
-30 -51 0
-51 -130 0
-51 -69 0
-30 -130 0
-30 -69 0
-69 -130 0
-45 -152 0
-41 -45 0
-45 -67 0
-41 -152 0
-67 -152 0
-41 -67 0
-54 -91 0
-91 -144 0
-91 -113 0
-54 -144 0
-54 -113 0
-113 -144 0
-26 -62 0
-25 -26 0
-26 -90 0
-25 -62 0
-62 -90 0
-25 -90 0
-52 -132 0
-37 -52 0
-24 -52 0
-37 -132 0
-24 -132 0
-24 -37 0
-50 -158 0
-23 -158 0
-111 -158 0
-23 -50 0
-50 -111 0
-23 -111 0
-124 -131 0
-124 -140 0
-124 -142 0
-131 -140 0
-131 -142 0
-140 -142 0
-26 -52 0
-26 -158 0
-26 -124 0
-52 -158 0
-52 -124 0
-124 -158 0
-62 -132 0
-50 -62 0
-62 -131 0
-50 -132 0
-131 -132 0
-50 -131 0
-25 -37 0
-23 -25 0
-25 -140 0
-23 -37 0
-37 -140 0
-23 -140 0
-24 -90 0
-90 -111 0
-90 -142 0
-24 -111 0
-24 -142 0
-111 -142 0
-47 -77 0
-47 -74 0
-74 -77 0
-22 -42 0
-27 -42 0
-22 -27 0
-79 -133 0
-21 -133 0
-21 -79 0
-42 -47 0
-47 -133 0
-42 -133 0
-22 -77 0
-77 -79 0
-22 -79 0
-27 -74 0
-21 -74 0
-21 -27 0
-20 -100 0
-43 -100 0
-18 -100 0
-100 -121 0
-20 -43 0
-18 -20 0
-20 -121 0
-18 -43 0
-43 -121 0
-18 -121 0
-61 -72 0
-40 -72 0
-17 -72 0
-16 -72 0
-40 -61 0
-17 -61 0
-16 -61 0
-17 -40 0
-16 -40 0
-16 -17 0
-15 -110 0
-15 -46 0
-15 -78 0
-15 -116 0
-46 -110 0
-78 -110 0
-110 -116 0
-46 -78 0
-46 -116 0
-78 -116 0
-14 -98 0
-13 -98 0
-98 -118 0
-98 -120 0
-13 -14 0
-14 -118 0
-14 -120 0
-13 -118 0
-13 -120 0
-118 -120 0
-125 -129 0
-125 -134 0
-125 -135 0
-125 -145 0
-129 -134 0
-129 -135 0
-129 -145 0
-134 -135 0
-134 -145 0
-135 -145 0
-72 -100 0
-15 -100 0
-98 -100 0
-100 -125 0
-15 -72 0
-72 -98 0
-72 -125 0
-15 -98 0
-15 -125 0
-98 -125 0
-20 -61 0
-20 -110 0
-14 -20 0
-20 -129 0
-61 -110 0
-14 -61 0
-61 -129 0
-14 -110 0
-110 -129 0
-14 -129 0
-40 -43 0
-43 -46 0
-13 -43 0
-43 -134 0
-40 -46 0
-13 -40 0
-40 -134 0
-13 -46 0
-46 -134 0
-13 -134 0
-17 -18 0
-18 -78 0
-18 -118 0
-18 -135 0
-17 -78 0
-17 -118 0
-17 -135 0
-78 -118 0
-78 -135 0
-118 -135 0
-16 -121 0
-116 -121 0
-120 -121 0
-121 -145 0
-16 -116 0
-16 -120 0
-16 -145 0
-116 -120 0
-116 -145 0
-120 -145 0
-12 -83 0
-12 -82 0
-12 -107 0
-82 -83 0
-83 -107 0
-82 -107 0
-10 -58 0
-34 -58 0
-9 -58 0
-10 -34 0
-9 -10 0
-9 -34 0
-19 -101 0
-8 -101 0
-101 -122 0
-8 -19 0
-19 -122 0
-8 -122 0
-71 -85 0
-7 -85 0
-85 -146 0
-7 -71 0
-71 -146 0
-7 -146 0
-12 -58 0
-12 -101 0
-12 -85 0
-58 -101 0
-58 -85 0
-85 -101 0
-10 -83 0
-19 -83 0
-71 -83 0
-10 -19 0
-10 -71 0
-19 -71 0
-34 -82 0
-8 -82 0
-7 -82 0
-8 -34 0
-7 -34 0
-7 -8 0
-9 -107 0
-107 -122 0
-107 -146 0
-9 -122 0
-9 -146 0
-122 -146 0
-56 -137 0
-56 -87 0
-35 -56 0
-56 -92 0
-87 -137 0
-35 -137 0
-92 -137 0
-35 -87 0
-87 -92 0
-35 -92 0
-6 -97 0
-5 -97 0
-97 -105 0
-4 -97 0
-5 -6 0
-6 -105 0
-4 -6 0
-5 -105 0
-4 -5 0
-4 -105 0
-3 -99 0
-28 -99 0
-99 -106 0
-2 -99 0
-3 -28 0
-3 -106 0
-2 -3 0
-28 -106 0
-2 -28 0
-2 -106 0
-11 -39 0
-1 -11 0
-11 -81 0
-11 -64 0
-1 -39 0
-39 -81 0
-39 -64 0
-1 -81 0
-1 -64 0
-64 -81 0
-59 -136 0
-59 -89 0
-33 -59 0
-59 -94 0
-89 -136 0
-33 -136 0
-94 -136 0
-33 -89 0
-89 -94 0
-33 -94 0
-56 -97 0
-56 -99 0
-11 -56 0
-56 -59 0
-97 -99 0
-11 -97 0
-59 -97 0
-11 -99 0
-59 -99 0
-11 -59 0
-6 -137 0
-3 -137 0
-39 -137 0
-136 -137 0
-3 -6 0
-6 -39 0
-6 -136 0
-3 -39 0
-3 -136 0
-39 -136 0
-5 -87 0
-28 -87 0
-1 -87 0
-87 -89 0
-5 -28 0
-1 -5 0
-5 -89 0
-1 -28 0
-28 -89 0
-1 -89 0
-35 -105 0
-35 -106 0
-35 -81 0
-33 -35 0
-105 -106 0
-81 -105 0
-33 -105 0
-81 -106 0
-33 -106 0
-33 -81 0
-4 -92 0
-2 -92 0
-64 -92 0
-92 -94 0
-2 -4 0
-4 -64 0
-4 -94 0
-2 -64 0
-2 -94 0
-64 -94 0
